data;

param n := 2;
param m := 5;

param t:= 
1	2	1
1	3	1
1	4	1
1	5	1
2	1	1
2	3	1
2	4	2
2	5	2	
3	1	1
3	2	1
3	4	2
3	5	2
4	1	1
4	2	2
4	3	2
4	5	1
5	1	1
5	2	2
5	3	2
5	4	1;

param tau :=
1	0
2	5
3	5
4	5
5	5;

param v :=
1	14
2	14;